NAME : PR143B.89472.tour
COMMENT : Cost = 0_89472
COMMENT : Found by LKH [Keld Helsgaun] Sun Sep 17 16:52:43 2017
TYPE : TOUR
DIMENSION : 143
TOUR_SECTION
1
2
30
34
35
25
22
23
39
21
40
17
18
20
19
8
7
9
10
11
12
13
14
15
16
41
60
61
62
64
65
73
88
89
98
97
96
95
94
93
92
91
90
72
74
75
76
77
99
101
102
103
104
78
79
80
83
84
110
111
112
113
114
130
131
132
135
136
138
139
140
141
142
143
137
134
133
129
128
127
126
124
123
122
121
120
119
118
117
116
115
125
100
87
86
105
106
107
108
109
85
82
56
33
32
31
48
49
50
51
52
53
54
55
57
45
46
47
58
59
63
68
69
71
70
44
43
42
67
66
38
37
36
24
26
27
29
28
3
4
6
5
81
-1
EOF
